c Random generated cnf formula, satisfiable: true
p cnf 10 50
4 10 6 0
6 3 5 0
5 1 -10 0
9 10 8 0
9 -7 -10 0
9 1 -5 0
4 8 -3 0
-2 -5 8 0
7 -5 1 0
7 -6 8 0
4 -1 5 0
-7 -6 -4 0
-5 -10 4 0
-7 2 10 0
-10 3 -4 0
-8 -10 -4 0
10 8 -4 0
-5 -9 -6 0
-3 -4 -7 0
-5 -7 6 0
4 -8 3 0
10 5 2 0
5 -2 -6 0
10 -6 1 0
-2 -5 4 0
-10 9 -2 0
-10 -8 7 0
-6 3 -7 0
6 9 10 0
-4 1 -6 0
5 -2 8 0
2 -8 6 0
-4 -1 -7 0
8 10 -5 0
-7 9 -2 0
-1 2 6 0
-1 3 -10 0
-8 4 6 0
4 1 9 0
-7 3 -6 0
-6 -10 3 0
-6 -1 7 0
-1 5 2 0
9 2 -6 0
6 4 -7 0
3 4 -1 0
2 -7 -5 0
3 -8 9 0
1 -2 -5 0
-3 -9 1 0
